Minimize
 + xt_0 + yt_0 + xt_1 + yt_1 + xt_2 + yt_2 -  w_l_5 + xt_5 + yt_5 + xt_6 + yt_6 + xt_7 + yt_7 + xt_8 + yt_8 + xt_9 + yt_9 + xt_10 + yt_10

Subject To
1 y_5 + 0 x_5  - w_l_5 >= 138.004
x_5 - xt_5 <= 127.685
x_5 + xt_5 >= 127.685
y_5 - yt_5 <= 138.05
y_5 + yt_5 >= 138.05
0 y_6 + 1 x_6  <= 121.755
x_6 - xt_6 <= 121.685
x_6 + xt_6 >= 121.685
y_6 - yt_6 <= 136.475
y_6 + yt_6 >= 136.475
14.7447 - 1 - 1 - 1 >= 0
14.7447 - 1 - 7.874 w_l_5 - 1 - 1 - 1 - 1 - 1 >= 0

Bounds
x_0 >= 0
y_0 >= 0
x_1 >= 0
y_1 >= 0
x_2 >= 0
y_2 >= 0
x_5 >= 0
y_5 >= 0
w_l_5 >= 0
x_6 >= 0
y_6 >= 0
x_7 >= 0
y_7 >= 0
x_8 >= 0
y_8 >= 0
x_9 >= 0
y_9 >= 0
x_10 >= 0
y_10 >= 0
End
